
Log started (V20.1.0.0) Sun Aug  7 19:11:43 2022


Problem 'pp.lp' read.
Read time = 0.00 sec. (0.00 ticks)
Version identifier: 20.1.0.0 | 2020-11-10 | 9bedb6d68
Tried aggregator 1 time.
No LP presolve or aggregator reductions.
Presolve time = 0.00 sec. (0.00 ticks)

Iteration log . . .
Iteration:     1   Dual objective     =            15.000000

Dual simplex - Optimal:  Objective =  2.2000000000e+01
Solution time =    0.00 sec.  Iterations = 3 (0)
Deterministic time = 0.00 ticks  (3.05 ticks/sec)


Variable Name           Solution Value
x1                            1.000000
x2                            2.000000
All other variables matching '*' are 0.
Version identifier: 20.1.0.0 | 2020-11-10 | 9bedb6d68
Using devex.

Primal simplex - Optimal:  Objective =  2.2000000000e+01
Solution time =    0.00 sec.  Iterations = 0 (0)
Deterministic time = 0.00 ticks  (0.36 ticks/sec)


Variable Name           Solution Value
x1                            1.000000
x2                            2.000000
All other variables matching '*' are 0.

Log started (V20.1.0.0) Sun Aug  7 19:23:30 2022


Problem 'pd.lp' read.
Read time = 0.01 sec. (0.00 ticks)
Version identifier: 20.1.0.0 | 2020-11-10 | 9bedb6d68
Infeasibility row 'r1_1':  0 >= 8.
Presolve time = 0.00 sec. (0.00 ticks)
Presolve - Infeasible.
Solution time =    0.01 sec.
Deterministic time = 0.00 ticks  (0.02 ticks/sec)
No solution exists.
Version identifier: 20.1.0.0 | 2020-11-10 | 9bedb6d68
Infeasibility row 'r1_1':  0 >= 8.
Presolve time = 0.00 sec. (0.00 ticks)
Presolve - Infeasible.
Solution time =    0.00 sec.
Deterministic time = 0.00 ticks  (0.30 ticks/sec)
